p cnf 487 1215
c ind 357 358 359 360 361 362 363 364 365 366 0
c ind 367 368 369 370 371 372 373 374 375 376 0
c ind 377 378 379 380 381 382 383 384 385 386 0
c ind 387 388 389 390 391 392 393 394 395 396 0
c ind 397 398 399 400 401 402 403 404 405 406 0
c ind 407 408 409 410 411 412 413 414 415 416 0
c ind 417 418 419 420 421 422 423 424 425 426 0
c ind 427 428 429 430 431 432 433 434 435 436 0
c ind 437 438 439 440 441 442 443 444 445 446 0
c ind 447 448 449 450 451 452 453 454 455 456 0
c ind 457 458 459 460 461 462 463 464 465 466 0
c ind 467 468 469 470 471 472 473 474 475 476 0
c ind 477 478 479 480 481 482 483 484 485 1 0
c ret 229 238 328 329 330 331 332 333 334 335 0
c ret 336 337 239 338 339 340 341 342 343 344 0
c ret 345 346 347 240 348 349 350 351 352 353 0
c ret 354 355 356 241 242 243 244 245 246 247 0
c ret 230 248 249 250 251 252 253 254 255 256 0
c ret 257 231 258 259 260 261 262 263 264 265 0
c ret 266 267 232 268 269 270 271 272 273 274 0
c ret 275 276 277 233 278 279 280 281 282 283 0
c ret 284 285 286 287 234 288 289 290 291 292 0
c ret 293 294 295 296 297 235 298 299 300 301 0
c ret 302 303 304 305 306 307 236 308 309 310 0
c ret 311 312 313 314 315 316 317 237 318 319 0
c ret 320 321 322 323 324 325 326 327 0
2 3 132 357 0
2 -3 90 132 0
-2 -132 0
-2 -3 -90 0
-2 3 -357 0
3 4 89 0
3 4 5 6 0
-3 -4 0
-3 -5 -89 0
-3 -6 -89 0
4 292 -356 0
-4 -292 0
-4 356 0
5 -291 355 0
-5 291 0
-5 -355 0
6 7 -290 0
6 7 354 0
-6 -7 0
-6 290 -354 0
7 87 -88 0
7 8 -86 -88 0
-7 88 0
-7 -8 -87 0
-7 86 -87 0
8 84 -85 0
8 9 -83 -85 0
-8 85 0
-8 -9 -84 0
-8 83 -84 0
9 81 -82 0
9 10 -80 -82 0
-9 82 0
-9 -10 -81 0
-9 80 -81 0
10 78 -79 0
10 11 -77 -79 0
-10 79 0
-10 -11 -78 0
-10 77 -78 0
11 75 -76 0
11 12 -74 -76 0
-11 76 0
-11 -12 -75 0
-11 74 -75 0
12 72 -73 0
12 13 -71 -73 0
-12 73 0
-12 -13 -72 0
-12 71 -72 0
13 69 -70 0
13 14 -68 -70 0
-13 70 0
-13 -14 -69 0
-13 68 -69 0
14 66 -67 0
14 15 -65 -67 0
-14 67 0
-14 -15 -66 0
-14 65 -66 0
15 63 -64 0
15 16 -62 -64 0
-15 64 0
-15 -16 -63 0
-15 62 -63 0
16 60 -61 0
16 17 -59 -61 0
-16 61 0
-16 -17 -60 0
-16 59 -60 0
17 57 -58 0
17 18 -56 -58 0
-17 58 0
-17 -18 -57 0
-17 56 -57 0
18 54 -55 0
18 19 -53 -55 0
-18 55 0
-18 -19 -54 0
-18 53 -54 0
19 51 -52 0
19 20 -50 -52 0
-19 52 0
-19 -20 -51 0
-19 50 -51 0
20 48 -49 0
20 21 -47 -49 0
-20 49 0
-20 -21 -48 0
-20 47 -48 0
21 45 -46 0
21 22 -44 -46 0
-21 46 0
-21 -22 -45 0
-21 44 -45 0
22 42 -43 0
22 23 -41 -43 0
-22 43 0
-22 -23 -42 0
-22 41 -42 0
23 39 -40 0
23 24 -38 -40 0
-23 40 0
-23 -24 -39 0
-23 38 -39 0
24 36 -37 0
24 25 -35 -37 0
-24 37 0
-24 -25 -36 0
-24 35 -36 0
25 33 -34 0
25 26 -32 -34 0
-25 34 0
-25 -26 -33 0
-25 32 -33 0
26 30 -31 0
26 27 -29 -31 0
-26 31 0
-26 -27 -30 0
-26 29 -30 0
27 28 -293 0
27 28 229 0
-27 -28 0
-27 -229 293 0
28 -230 294 0
-28 230 0
-28 -294 0
29 -231 294 0
29 -230 295 0
29 -230 -231 0
29 294 295 0
-29 231 -295 0
-29 230 -294 0
30 231 232 0
30 -295 -296 0
30 231 -296 0
30 232 -295 0
-30 -231 295 0
-30 -232 296 0
31 -233 296 0
31 -232 297 0
31 -232 -233 0
31 296 297 0
-31 233 -297 0
-31 232 -296 0
32 233 234 0
32 -297 -298 0
32 233 -298 0
32 234 -297 0
-32 -233 297 0
-32 -234 298 0
33 -235 298 0
33 -234 299 0
33 -234 -235 0
33 298 299 0
-33 235 -299 0
-33 234 -298 0
34 235 236 0
34 -299 -300 0
34 235 -300 0
34 236 -299 0
-34 -235 299 0
-34 -236 300 0
35 -237 300 0
35 -236 301 0
35 -236 -237 0
35 300 301 0
-35 237 -301 0
-35 236 -300 0
36 237 238 0
36 -301 -302 0
36 237 -302 0
36 238 -301 0
-36 -237 301 0
-36 -238 302 0
37 -239 302 0
37 -238 303 0
37 -238 -239 0
37 302 303 0
-37 239 -303 0
-37 238 -302 0
38 239 240 0
38 -303 -304 0
38 239 -304 0
38 240 -303 0
-38 -239 303 0
-38 -240 304 0
39 -241 304 0
39 -240 305 0
39 -240 -241 0
39 304 305 0
-39 241 -305 0
-39 240 -304 0
40 241 242 0
40 -305 -306 0
40 241 -306 0
40 242 -305 0
-40 -241 305 0
-40 -242 306 0
41 -243 306 0
41 -242 307 0
41 -242 -243 0
41 306 307 0
-41 243 -307 0
-41 242 -306 0
42 243 244 0
42 -307 -308 0
42 243 -308 0
42 244 -307 0
-42 -243 307 0
-42 -244 308 0
43 -245 308 0
43 -244 309 0
43 -244 -245 0
43 308 309 0
-43 245 -309 0
-43 244 -308 0
44 245 246 0
44 -309 -310 0
44 245 -310 0
44 246 -309 0
-44 -245 309 0
-44 -246 310 0
45 -247 310 0
45 -246 311 0
45 -246 -247 0
45 310 311 0
-45 247 -311 0
-45 246 -310 0
46 247 248 0
46 -311 -312 0
46 247 -312 0
46 248 -311 0
-46 -247 311 0
-46 -248 312 0
47 -249 312 0
47 -248 313 0
47 -248 -249 0
47 312 313 0
-47 249 -313 0
-47 248 -312 0
48 249 250 0
48 -313 -314 0
48 249 -314 0
48 250 -313 0
-48 -249 313 0
-48 -250 314 0
49 -251 314 0
49 -250 315 0
49 -250 -251 0
49 314 315 0
-49 251 -315 0
-49 250 -314 0
50 251 252 0
50 -315 -316 0
50 251 -316 0
50 252 -315 0
-50 -251 315 0
-50 -252 316 0
51 -253 316 0
51 -252 317 0
51 -252 -253 0
51 316 317 0
-51 253 -317 0
-51 252 -316 0
52 253 254 0
52 -317 -318 0
52 253 -318 0
52 254 -317 0
-52 -253 317 0
-52 -254 318 0
53 -255 318 0
53 -254 319 0
53 -254 -255 0
53 318 319 0
-53 255 -319 0
-53 254 -318 0
54 255 256 0
54 -319 -320 0
54 255 -320 0
54 256 -319 0
-54 -255 319 0
-54 -256 320 0
55 -257 320 0
55 -256 321 0
55 -256 -257 0
55 320 321 0
-55 257 -321 0
-55 256 -320 0
56 257 258 0
56 -321 -322 0
56 257 -322 0
56 258 -321 0
-56 -257 321 0
-56 -258 322 0
57 -259 322 0
57 -258 323 0
57 -258 -259 0
57 322 323 0
-57 259 -323 0
-57 258 -322 0
58 259 260 0
58 -323 -324 0
58 259 -324 0
58 260 -323 0
-58 -259 323 0
-58 -260 324 0
59 -261 324 0
59 -260 325 0
59 -260 -261 0
59 324 325 0
-59 261 -325 0
-59 260 -324 0
60 261 262 0
60 -325 -326 0
60 261 -326 0
60 262 -325 0
-60 -261 325 0
-60 -262 326 0
61 -263 326 0
61 -262 327 0
61 -262 -263 0
61 326 327 0
-61 263 -327 0
-61 262 -326 0
62 263 264 0
62 -327 -328 0
62 263 -328 0
62 264 -327 0
-62 -263 327 0
-62 -264 328 0
63 -265 328 0
63 -264 329 0
63 -264 -265 0
63 328 329 0
-63 265 -329 0
-63 264 -328 0
64 265 266 0
64 -329 -330 0
64 265 -330 0
64 266 -329 0
-64 -265 329 0
-64 -266 330 0
65 -267 330 0
65 -266 331 0
65 -266 -267 0
65 330 331 0
-65 267 -331 0
-65 266 -330 0
66 267 268 0
66 -331 -332 0
66 267 -332 0
66 268 -331 0
-66 -267 331 0
-66 -268 332 0
67 -269 332 0
67 -268 333 0
67 -268 -269 0
67 332 333 0
-67 269 -333 0
-67 268 -332 0
68 269 270 0
68 -333 -334 0
68 269 -334 0
68 270 -333 0
-68 -269 333 0
-68 -270 334 0
69 -271 334 0
69 -270 335 0
69 -270 -271 0
69 334 335 0
-69 271 -335 0
-69 270 -334 0
70 271 272 0
70 -335 -336 0
70 271 -336 0
70 272 -335 0
-70 -271 335 0
-70 -272 336 0
71 -273 336 0
71 -272 337 0
71 -272 -273 0
71 336 337 0
-71 273 -337 0
-71 272 -336 0
72 273 274 0
72 -337 -338 0
72 273 -338 0
72 274 -337 0
-72 -273 337 0
-72 -274 338 0
73 -275 338 0
73 -274 339 0
73 -274 -275 0
73 338 339 0
-73 275 -339 0
-73 274 -338 0
74 275 276 0
74 -339 -340 0
74 275 -340 0
74 276 -339 0
-74 -275 339 0
-74 -276 340 0
75 -277 340 0
75 -276 341 0
75 -276 -277 0
75 340 341 0
-75 277 -341 0
-75 276 -340 0
76 277 278 0
76 -341 -342 0
76 277 -342 0
76 278 -341 0
-76 -277 341 0
-76 -278 342 0
77 -279 342 0
77 -278 343 0
77 -278 -279 0
77 342 343 0
-77 279 -343 0
-77 278 -342 0
78 279 280 0
78 -343 -344 0
78 279 -344 0
78 280 -343 0
-78 -279 343 0
-78 -280 344 0
79 -281 344 0
79 -280 345 0
79 -280 -281 0
79 344 345 0
-79 281 -345 0
-79 280 -344 0
80 281 282 0
80 -345 -346 0
80 281 -346 0
80 282 -345 0
-80 -281 345 0
-80 -282 346 0
81 -283 346 0
81 -282 347 0
81 -282 -283 0
81 346 347 0
-81 283 -347 0
-81 282 -346 0
82 283 284 0
82 -347 -348 0
82 283 -348 0
82 284 -347 0
-82 -283 347 0
-82 -284 348 0
83 -285 348 0
83 -284 349 0
83 -284 -285 0
83 348 349 0
-83 285 -349 0
-83 284 -348 0
84 285 286 0
84 -349 -350 0
84 285 -350 0
84 286 -349 0
-84 -285 349 0
-84 -286 350 0
85 -287 350 0
85 -286 351 0
85 -286 -287 0
85 350 351 0
-85 287 -351 0
-85 286 -350 0
86 287 288 0
86 -351 -352 0
86 287 -352 0
86 288 -351 0
-86 -287 351 0
-86 -288 352 0
87 -289 352 0
87 -288 353 0
87 -288 -289 0
87 352 353 0
-87 289 -353 0
-87 288 -352 0
88 289 290 0
88 -353 -354 0
88 289 -354 0
88 290 -353 0
-88 -289 353 0
-88 -290 354 0
89 -291 292 356 0
89 -292 355 -356 0
89 -291 -292 -356 0
89 292 355 356 0
-89 292 -356 0
-89 -292 356 0
-89 291 -355 0
90 -91 -112 -122 -127 0
-90 127 0
-90 91 0
-90 122 0
-90 112 0
91 -92 -97 -102 -107 0
-91 107 0
-91 92 0
-91 102 0
-91 97 0
92 -93 -94 -95 -96 0
-92 96 0
-92 93 0
-92 95 0
-92 94 0
93 313 314 315 316 0
-93 -316 0
-93 -315 0
-93 -313 0
-93 -314 0
94 309 310 311 312 0
-94 -312 0
-94 -311 0
-94 -309 0
-94 -310 0
95 321 322 323 324 0
-95 -324 0
-95 -323 0
-95 -321 0
-95 -322 0
96 317 318 319 320 0
-96 -320 0
-96 -319 0
-96 -317 0
-96 -318 0
97 -98 -99 -100 -101 0
-97 101 0
-97 98 0
-97 100 0
-97 99 0
98 297 298 299 300 0
-98 -300 0
-98 -299 0
-98 -297 0
-98 -298 0
99 291 292 295 296 0
-99 -296 0
-99 -295 0
-99 -291 0
-99 -292 0
100 305 306 307 308 0
-100 -308 0
-100 -307 0
-100 -305 0
-100 -306 0
101 301 302 303 304 0
-101 -304 0
-101 -303 0
-101 -301 0
-101 -302 0
102 -103 -104 -105 -106 0
-102 106 0
-102 103 0
-102 105 0
-102 104 0
103 345 346 347 348 0
-103 -348 0
-103 -347 0
-103 -345 0
-103 -346 0
104 341 342 343 344 0
-104 -344 0
-104 -343 0
-104 -341 0
-104 -342 0
105 353 354 355 356 0
-105 -356 0
-105 -355 0
-105 -353 0
-105 -354 0
106 349 350 351 352 0
-106 -352 0
-106 -351 0
-106 -349 0
-106 -350 0
107 -108 -109 -110 -111 0
-107 111 0
-107 108 0
-107 110 0
-107 109 0
108 329 330 331 332 0
-108 -332 0
-108 -331 0
-108 -329 0
-108 -330 0
109 325 326 327 328 0
-109 -328 0
-109 -327 0
-109 -325 0
-109 -326 0
110 337 338 339 340 0
-110 -340 0
-110 -339 0
-110 -337 0
-110 -338 0
111 333 334 335 336 0
-111 -336 0
-111 -335 0
-111 -333 0
-111 -334 0
112 -113 -118 -120 -121 0
-112 121 0
-112 113 0
-112 120 0
-112 118 0
113 -114 -115 -116 -117 0
-113 117 0
-113 114 0
-113 116 0
-113 115 0
114 247 248 249 250 0
-114 -250 0
-114 -249 0
-114 -247 0
-114 -248 0
115 243 244 245 246 0
-115 -246 0
-115 -245 0
-115 -243 0
-115 -244 0
116 255 256 257 258 0
-116 -258 0
-116 -257 0
-116 -255 0
-116 -256 0
117 251 252 253 254 0
-117 -254 0
-117 -253 0
-117 -251 0
-117 -252 0
-28 118 -119 229 -293 0
-118 -229 0
-118 119 0
28 -118 0
-118 293 0
119 231 232 233 234 0
-119 -234 0
-119 -233 0
-119 -231 0
-119 -232 0
120 239 240 241 242 0
-120 -242 0
-120 -241 0
-120 -239 0
-120 -240 0
121 235 236 237 238 0
-121 -238 0
-121 -237 0
-121 -235 0
-121 -236 0
122 -123 -124 -125 -126 0
-122 126 0
-122 123 0
-122 125 0
-122 124 0
123 279 280 281 282 0
-123 -282 0
-123 -281 0
-123 -279 0
-123 -280 0
124 275 276 277 278 0
-124 -278 0
-124 -277 0
-124 -275 0
-124 -276 0
125 287 288 289 290 0
-125 -290 0
-125 -289 0
-125 -287 0
-125 -288 0
126 283 284 285 286 0
-126 -286 0
-126 -285 0
-126 -283 0
-126 -284 0
127 -128 -129 -130 -131 0
-127 131 0
-127 128 0
-127 130 0
-127 129 0
128 263 264 265 266 0
-128 -266 0
-128 -265 0
-128 -263 0
-128 -264 0
129 259 260 261 262 0
-129 -262 0
-129 -261 0
-129 -259 0
-129 -260 0
130 271 272 273 274 0
-130 -274 0
-130 -273 0
-130 -271 0
-130 -272 0
131 267 268 269 270 0
-131 -270 0
-131 -269 0
-131 -267 0
-131 -268 0
132 133 -206 -209 -214 0
-132 -133 0
-132 214 0
-132 209 0
-132 206 0
133 -134 -176 -181 -186 0
-133 186 0
-133 134 0
-133 181 0
-133 176 0
134 -135 -138 -143 -153 0
-134 153 0
-134 135 0
-134 143 0
-134 138 0
135 -136 -137 369 433 0
135 -136 -137 -369 -433 0
-135 137 0
-135 -369 433 0
-135 136 0
-135 369 -433 0
136 -379 413 -443 477 0
136 379 -413 443 -477 0
136 379 413 443 477 0
136 -379 -413 -443 -477 0
-136 -379 443 0
-136 379 -443 0
-136 413 -477 0
-136 -413 477 0
137 409 416 0
137 -473 -480 0
137 409 -480 0
137 416 -473 0
-137 -409 473 0
-137 -416 480 0
138 -139 -142 366 430 0
138 -139 -142 -366 -430 0
-138 142 0
-138 -366 430 0
-138 139 0
-138 366 -430 0
139 140 141 417 481 0
139 140 141 -417 -481 0
-139 -140 0
-139 -417 481 0
-139 -141 0
-139 417 -481 0
140 360 -424 0
-140 -360 0
-140 424 0
141 -414 478 0
-141 414 0
-141 -478 0
142 359 360 0
142 -423 -424 0
142 359 -424 0
142 360 -423 0
-142 -359 423 0
-142 -360 424 0
143 -144 -146 -149 -152 0
-143 152 0
-143 144 0
-143 149 0
-143 146 0
144 -145 -398 -462 0
144 -145 398 462 0
-144 145 0
-144 -398 462 0
-144 398 -462 0
145 394 397 0
145 -458 -461 0
145 394 -461 0
145 397 -458 0
-145 -394 458 0
-145 -397 461 0
146 147 148 363 427 0
146 147 148 -363 -427 0
-146 -147 0
-146 -363 427 0
-146 -148 0
-146 363 -427 0
147 397 -461 0
-147 -397 0
-147 461 0
148 359 -423 0
-148 -359 0
-148 423 0
149 150 151 376 440 0
149 150 151 -376 -440 0
-149 -150 0
-149 -376 440 0
-149 -151 0
-149 376 -440 0
150 409 -473 0
-150 -409 0
-150 473 0
151 370 -434 0
-151 -370 0
-151 434 0
152 -386 401 -450 465 0
152 386 -401 450 -465 0
152 386 401 450 465 0
152 -386 -401 -450 -465 0
-152 -386 450 0
-152 386 -450 0
-152 401 -465 0
-152 -401 465 0
153 -154 -157 -160 -165 0
-153 165 0
-153 154 0
-153 160 0
-153 157 0
154 155 156 418 482 0
154 155 156 -418 -482 0
-154 -155 0
-154 -418 482 0
-154 -156 0
-154 418 -482 0
155 -419 483 0
-155 419 0
-155 -483 0
156 420 -484 0
-156 -420 0
-156 484 0
157 158 159 411 475 0
157 158 159 -411 -475 0
-157 -158 0
-157 -411 475 0
-157 -159 0
-157 411 -475 0
158 368 -432 0
-158 -368 0
-158 432 0
159 377 -441 0
-159 -377 0
-159 441 0
160 -161 -162 381 445 0
160 -161 -162 -381 -445 0
-160 162 0
-160 -381 445 0
-160 161 0
-160 381 -445 0
161 -378 -439 0
161 375 442 0
161 375 -378 0
161 -439 442 0
-161 -375 439 0
-161 378 -442 0
162 -163 164 -442 0
162 -163 164 378 0
-162 163 0
-162 -164 0
-162 -378 442 0
163 -419 -484 0
163 420 483 0
163 483 -484 0
163 -419 420 0
-163 -420 484 0
-163 419 -483 0
164 -377 441 0
-164 377 0
-164 -441 0
165 -166 -169 -170 -171 0
-165 171 0
-165 166 0
-165 170 0
-165 169 0
166 167 168 384 448 0
166 167 168 -384 -448 0
-166 -167 0
-166 -384 448 0
-166 -168 0
-166 384 -448 0
167 -385 449 0
-167 385 0
-167 -449 0
168 393 -457 0
-168 -393 0
-168 457 0
169 -414 429 0
169 -365 478 0
169 -365 -414 0
169 429 478 0
-169 414 -478 0
-169 365 -429 0
170 -406 449 0
170 -385 470 0
170 -385 -406 0
170 449 470 0
-170 406 -470 0
-170 385 -449 0
171 -172 -173 -174 -175 0
-171 175 0
-171 172 0
-171 174 0
-171 173 0
172 -403 453 0
172 -389 467 0
172 -389 -403 0
172 453 467 0
-172 403 -467 0
-172 389 -453 0
173 365 368 0
173 -429 -432 0
173 365 -432 0
173 368 -429 0
-173 -365 429 0
-173 -368 432 0
174 393 406 0
174 -457 -470 0
174 393 -470 0
174 406 -457 0
-174 -393 457 0
-174 -406 470 0
175 389 403 0
175 -453 -467 0
175 389 -467 0
175 403 -453 0
-175 -389 453 0
-175 -403 467 0
176 -177 -178 -179 -180 0
-176 180 0
-176 177 0
-176 179 0
-176 178 0
177 -400 405 -464 469 0
177 400 -405 464 -469 0
177 400 405 464 469 0
177 -400 -405 -464 -469 0
-177 -400 464 0
-177 400 -464 0
-177 405 -469 0
-177 -405 469 0
178 -358 388 -422 452 0
178 358 -388 422 -452 0
178 358 388 422 452 0
178 -358 -388 -422 -452 0
-178 -358 422 0
-178 358 -422 0
-178 388 -452 0
-178 -388 452 0
179 -395 421 -459 485 0
179 395 -421 459 -485 0
179 395 421 459 485 0
179 -395 -421 -459 -485 0
-179 -395 459 0
-179 395 -459 0
-179 421 -485 0
-179 -421 485 0
180 -380 390 -444 454 0
180 380 -390 444 -454 0
180 380 390 444 454 0
180 -380 -390 -444 -454 0
-180 -380 444 0
-180 380 -444 0
-180 390 -454 0
-180 -390 454 0
181 -182 -183 -184 -185 0
-181 185 0
-181 182 0
-181 184 0
-181 183 0
182 -361 408 -425 472 0
182 361 -408 425 -472 0
182 361 408 425 472 0
182 -361 -408 -425 -472 0
-182 -361 425 0
-182 361 -425 0
-182 408 -472 0
-182 -408 472 0
183 -371 415 -435 479 0
183 371 -415 435 -479 0
183 371 415 435 479 0
183 -371 -415 -435 -479 0
-183 -371 435 0
-183 371 -435 0
-183 415 -479 0
-183 -415 479 0
184 -399 407 -463 471 0
184 399 -407 463 -471 0
184 399 407 463 471 0
184 -399 -407 -463 -471 0
-184 -399 463 0
-184 399 -463 0
-184 407 -471 0
-184 -407 471 0
185 -374 382 -438 446 0
185 374 -382 438 -446 0
185 374 382 438 446 0
185 -374 -382 -438 -446 0
-185 -374 438 0
-185 374 -438 0
-185 382 -446 0
-185 -382 446 0
186 -187 -192 -193 -194 0
-186 194 0
-186 187 0
-186 193 0
-186 192 0
187 -188 -189 391 455 0
187 -188 -189 -391 -455 0
-187 189 0
-187 -391 455 0
-187 188 0
-187 391 -455 0
188 370 372 0
188 -434 -436 0
188 370 -436 0
188 372 -434 0
-188 -370 434 0
-188 -372 436 0
189 -190 191 -372 0
189 -190 191 436 0
-189 190 0
-189 -191 0
-189 372 -436 0
190 -394 426 0
190 -362 458 0
190 -362 -394 0
190 426 458 0
-190 394 -458 0
-190 362 -426 0
191 -392 456 0
-191 392 0
-191 -456 0
192 -364 387 -428 451 0
192 364 -387 428 -451 0
192 364 387 428 451 0
192 -364 -387 -428 -451 0
-192 -364 428 0
-192 364 -428 0
-192 387 -451 0
-192 -387 451 0
193 -396 402 -460 466 0
193 396 -402 460 -466 0
193 396 402 460 466 0
193 -396 -402 -460 -466 0
-193 -396 460 0
-193 396 -460 0
-193 402 -466 0
-193 -402 466 0
194 -195 -201 -204 -205 0
-194 205 0
-194 195 0
-194 204 0
-194 201 0
195 -196 -199 -200 0
-195 196 0
-195 199 0
-195 200 0
196 197 198 373 437 0
196 197 198 -373 -437 0
-196 -197 0
-196 -373 437 0
-196 -198 0
-196 373 -437 0
197 410 -474 0
-197 -410 0
-197 474 0
198 -367 431 0
-198 367 0
-198 -431 0
199 -392 439 0
199 -375 456 0
199 -375 -392 0
199 439 456 0
-199 392 -456 0
-199 375 -439 0
200 -412 -474 0
200 410 476 0
200 410 -412 0
200 -474 476 0
-200 -410 474 0
-200 412 -476 0
201 202 203 404 468 0
201 202 203 -404 -468 0
-201 -202 0
-201 -404 468 0
-201 -203 0
-201 404 -468 0
202 383 -447 0
-202 -383 0
-202 447 0
203 -362 426 0
-203 362 0
-203 -426 0
204 -416 431 0
204 -367 480 0
204 -367 -416 0
204 431 480 0
-204 416 -480 0
-204 367 -431 0
205 383 412 0
205 -447 -476 0
205 383 -476 0
205 412 -447 0
-205 -383 447 0
-205 -412 476 0
-27 -29 -89 206 -207 0
-206 207 0
27 -206 0
89 -206 0
29 -206 0
5 207 208 -290 0
5 207 208 354 0
-207 -208 0
-5 -207 0
-207 290 -354 0
208 229 -293 0
-208 -229 0
-208 293 0
209 -210 -211 -212 -213 0
-209 213 0
-209 210 0
-209 212 0
-209 211 0
-34 -35 -36 -37 210 0
37 -210 0
34 -210 0
36 -210 0
35 -210 0
-30 -31 -32 -33 211 0
33 -211 0
30 -211 0
32 -211 0
31 -211 0
-42 -43 -44 -45 212 0
45 -212 0
42 -212 0
44 -212 0
43 -212 0
-38 -39 -40 -41 213 0
41 -213 0
38 -213 0
40 -213 0
39 -213 0
214 -215 -216 -219 -224 0
-214 224 0
-214 215 0
-214 219 0
-214 216 0
-86 -87 -88 215 0
86 -215 0
87 -215 0
88 -215 0
-80 -81 216 -217 -218 0
-216 218 0
80 -216 0
-216 217 0
81 -216 0
-82 -83 -84 -85 217 0
85 -217 0
82 -217 0
84 -217 0
83 -217 0
-78 -79 218 0
78 -218 0
79 -218 0
219 -220 -221 -222 -223 0
-219 223 0
-219 220 0
-219 222 0
-219 221 0
-66 -67 -68 -69 220 0
69 -220 0
66 -220 0
68 -220 0
67 -220 0
-62 -63 -64 -65 221 0
65 -221 0
62 -221 0
64 -221 0
63 -221 0
-74 -75 -76 -77 222 0
77 -222 0
74 -222 0
76 -222 0
75 -222 0
-70 -71 -72 -73 223 0
73 -223 0
70 -223 0
72 -223 0
71 -223 0
224 -225 -226 -227 -228 0
-224 228 0
-224 225 0
-224 227 0
-224 226 0
-50 -51 -52 -53 225 0
53 -225 0
50 -225 0
52 -225 0
51 -225 0
-46 -47 -48 -49 226 0
49 -226 0
46 -226 0
48 -226 0
47 -226 0
-58 -59 -60 -61 227 0
61 -227 0
58 -227 0
60 -227 0
59 -227 0
-54 -55 -56 -57 228 0
57 -228 0
54 -228 0
56 -228 0
55 -228 0
1 -2 0
-1 2 0
486 0

